c strEdges: 125  randomEdges: 504 
c degrees:  1  2 
c girth: Inf max: -43.604516  
c Hgirth mixed MAXCUT instance
c generated from an undirected graph
c to solve unweighted MaxCut
p cnf 140 1258
50 70 0
-50 -70 0
50 103 0
-50 -103 0
40 13 0
-40 -13 0
40 90 0
-40 -90 0
114 46 0
-114 -46 0
114 100 0
-114 -100 0
118 1 0
-118 -1 0
118 65 0
-118 -65 0
64 100 0
-64 -100 0
64 139 0
-64 -139 0
127 31 0
-127 -31 0
127 6 0
-127 -6 0
49 26 0
-49 -26 0
49 13 0
-49 -13 0
27 38 0
-27 -38 0
27 86 0
-27 -86 0
81 80 0
-81 -80 0
81 52 0
-81 -52 0
41 93 0
-41 -93 0
41 38 0
-41 -38 0
71 107 0
-71 -107 0
71 16 0
-71 -16 0
58 117 0
-58 -117 0
58 1 0
-58 -1 0
77 56 0
-77 -56 0
77 94 0
-77 -94 0
111 115 0
-111 -115 0
111 119 0
-111 -119 0
92 43 0
-92 -43 0
73 3 0
-73 -3 0
128 139 0
-128 -139 0
18 129 0
-18 -129 0
18 29 0
-18 -29 0
11 10 0
-11 -10 0
11 110 0
-11 -110 0
55 88 0
-55 -88 0
101 14 0
-101 -14 0
101 60 0
-101 -60 0
45 37 0
-45 -37 0
45 53 0
-45 -53 0
9 33 0
-9 -33 0
9 32 0
-9 -32 0
54 6 0
-54 -6 0
54 46 0
-54 -46 0
59 29 0
-59 -29 0
104 82 0
-104 -82 0
104 56 0
-104 -56 0
84 65 0
-84 -65 0
4 32 0
-4 -32 0
4 14 0
-4 -14 0
66 21 0
-66 -21 0
66 82 0
-66 -82 0
83 57 0
-83 -57 0
83 8 0
-83 -8 0
76 98 0
-76 -98 0
95 138 0
-95 -138 0
95 57 0
-95 -57 0
85 99 0
-85 -99 0
85 80 0
-85 -80 0
120 25 0
-120 -25 0
120 72 0
-120 -72 0
124 2 0
-124 -2 0
124 15 0
-124 -15 0
130 28 0
-130 -28 0
130 134 0
-130 -134 0
136 19 0
-136 -19 0
136 116 0
-136 -116 0
22 53 0
-22 -53 0
22 117 0
-22 -117 0
24 86 0
-24 -86 0
24 108 0
-24 -108 0
35 75 0
-35 -75 0
35 5 0
-35 -5 0
17 39 0
-17 -39 0
17 19 0
-17 -19 0
135 15 0
-135 -15 0
67 103 0
-67 -103 0
67 97 0
-67 -97 0
89 105 0
-89 -105 0
62 94 0
-62 -94 0
62 115 0
-62 -115 0
23 5 0
-23 -5 0
23 68 0
-23 -68 0
132 72 0
-132 -72 0
102 51 0
-102 -51 0
102 75 0
-102 -75 0
140 91 0
-140 -91 0
140 51 0
-140 -51 0
106 116 0
-106 -116 0
96 60 0
-96 -60 0
96 39 0
-96 -39 0
42 52 0
-42 -52 0
42 21 0
-42 -21 0
48 90 0
-48 -90 0
48 107 0
-48 -107 0
122 7 0
-122 -7 0
125 97 0
-125 -97 0
125 30 0
-125 -30 0
87 16 0
-87 -16 0
87 91 0
-87 -91 0
44 137 0
-44 -137 0
44 98 0
-44 -98 0
112 69 0
-112 -69 0
112 25 0
-112 -25 0
79 12 0
-79 -12 0
79 31 0
-79 -31 0
123 36 0
-123 -36 0
131 108 0
-131 -108 0
121 8 0
-121 -8 0
121 70 0
-121 -70 0
113 47 0
-113 -47 0
113 137 0
-113 -137 0
20 119 0
-20 -119 0
20 36 0
-20 -36 0
133 68 0
-133 -68 0
133 43 0
-133 -43 0
126 109 0
-126 -109 0
126 105 0
-126 -105 0
63 30 0
-63 -30 0
63 47 0
-63 -47 0
78 61 0
-78 -61 0
78 99 0
-78 -99 0
34 134 0
-34 -134 0
74 110 0
-74 -110 0
74 88 0
-74 -88 0
40 45 0
-40 -45 0
81 129 0
-81 -129 0
77 57 0
-77 -57 0
104 29 0
-104 -29 0
128 25 0
-128 -25 0
120 7 0
-120 -7 0
107 94 0
-107 -94 0
92 87 0
-92 -87 0
87 46 0
-87 -46 0
37 12 0
-37 -12 0
31 30 0
-31 -30 0
135 94 0
-135 -94 0
118 139 0
-118 -139 0
100 129 0
-100 -129 0
130 116 0
-130 -116 0
17 53 0
-17 -53 0
78 21 0
-78 -21 0
36 68 0
-36 -68 0
56 43 0
-56 -43 0
102 44 0
-102 -44 0
44 32 0
-44 -32 0
111 16 0
-111 -16 0
127 131 0
-127 -131 0
111 136 0
-111 -136 0
107 86 0
-107 -86 0
123 51 0
-123 -51 0
113 119 0
-113 -119 0
35 119 0
-35 -119 0
20 30 0
-20 -30 0
64 24 0
-64 -24 0
140 13 0
-140 -13 0
34 57 0
-34 -57 0
117 86 0
-117 -86 0
45 103 0
-45 -103 0
44 53 0
-44 -53 0
95 24 0
-95 -24 0
58 137 0
-58 -137 0
4 35 0
-4 -35 0
23 44 0
-23 -44 0
81 28 0
-81 -28 0
32 97 0
-32 -97 0
41 74 0
-41 -74 0
58 67 0
-58 -67 0
27 111 0
-27 -111 0
125 19 0
-125 -19 0
54 65 0
-54 -65 0
140 94 0
-140 -94 0
95 75 0
-95 -75 0
49 19 0
-49 -19 0
104 31 0
-104 -31 0
100 93 0
-100 -93 0
102 70 0
-102 -70 0
22 25 0
-22 -25 0
50 125 0
-50 -125 0
106 112 0
-106 -112 0
41 87 0
-41 -87 0
111 97 0
-111 -97 0
26 14 0
-26 -14 0
88 6 0
-88 -6 0
59 33 0
-59 -33 0
107 105 0
-107 -105 0
83 103 0
-83 -103 0
54 125 0
-54 -125 0
81 59 0
-81 -59 0
101 22 0
-101 -22 0
4 26 0
-4 -26 0
20 117 0
-20 -117 0
120 20 0
-120 -20 0
4 78 0
-4 -78 0
135 87 0
-135 -87 0
23 110 0
-23 -110 0
124 6 0
-124 -6 0
11 91 0
-11 -91 0
48 93 0
-48 -93 0
129 37 0
-129 -37 0
32 86 0
-32 -86 0
92 26 0
-92 -26 0
40 6 0
-40 -6 0
96 86 0
-96 -86 0
130 115 0
-130 -115 0
135 19 0
-135 -19 0
58 86 0
-58 -86 0
124 74 0
-124 -74 0
98 90 0
-98 -90 0
28 137 0
-28 -137 0
59 100 0
-59 -100 0
18 93 0
-18 -93 0
11 7 0
-11 -7 0
131 109 0
-131 -109 0
64 55 0
-64 -55 0
127 103 0
-127 -103 0
93 8 0
-93 -8 0
24 44 0
-24 -44 0
45 104 0
-45 -104 0
18 51 0
-18 -51 0
58 124 0
-58 -124 0
136 30 0
-136 -30 0
49 55 0
-49 -55 0
111 113 0
-111 -113 0
111 61 0
-111 -61 0
101 87 0
-101 -87 0
46 134 0
-46 -134 0
23 90 0
-23 -90 0
20 26 0
-20 -26 0
49 70 0
-49 -70 0
93 119 0
-93 -119 0
9 57 0
-9 -57 0
114 68 0
-114 -68 0
88 91 0
-88 -91 0
128 116 0
-128 -116 0
63 28 0
-63 -28 0
114 136 0
-114 -136 0
63 107 0
-63 -107 0
122 36 0
-122 -36 0
59 122 0
-59 -122 0
42 116 0
-42 -116 0
77 30 0
-77 -30 0
102 30 0
-102 -30 0
18 16 0
-18 -16 0
111 139 0
-111 -139 0
101 100 0
-101 -100 0
106 38 0
-106 -38 0
135 28 0
-135 -28 0
81 8 0
-81 -8 0
39 69 0
-39 -69 0
88 82 0
-88 -82 0
77 15 0
-77 -15 0
40 1 0
-40 -1 0
59 135 0
-59 -135 0
52 90 0
-52 -90 0
81 97 0
-81 -97 0
64 84 0
-64 -84 0
80 37 0
-80 -37 0
71 58 0
-71 -58 0
82 15 0
-82 -15 0
66 121 0
-66 -121 0
18 47 0
-18 -47 0
48 134 0
-48 -134 0
115 65 0
-115 -65 0
107 3 0
-107 -3 0
106 32 0
-106 -32 0
64 105 0
-64 -105 0
59 125 0
-59 -125 0
1 57 0
-1 -57 0
129 14 0
-129 -14 0
102 87 0
-102 -87 0
71 88 0
-71 -88 0
1 16 0
-1 -16 0
55 3 0
-55 -3 0
111 39 0
-111 -39 0
3 32 0
-3 -32 0
83 12 0
-83 -12 0
95 42 0
-95 -42 0
45 28 0
-45 -28 0
114 2 0
-114 -2 0
20 60 0
-20 -60 0
11 74 0
-11 -74 0
65 36 0
-65 -36 0
32 75 0
-32 -75 0
11 95 0
-11 -95 0
111 124 0
-111 -124 0
106 88 0
-106 -88 0
102 43 0
-102 -43 0
35 61 0
-35 -61 0
62 8 0
-62 -8 0
58 115 0
-58 -115 0
133 137 0
-133 -137 0
111 110 0
-111 -110 0
118 25 0
-118 -25 0
64 7 0
-64 -7 0
89 7 0
-89 -7 0
127 7 0
-127 -7 0
24 14 0
-24 -14 0
13 75 0
-13 -75 0
133 1 0
-133 -1 0
22 2 0
-22 -2 0
43 119 0
-43 -119 0
128 51 0
-128 -51 0
33 30 0
-33 -30 0
124 26 0
-124 -26 0
113 110 0
-113 -110 0
92 25 0
-92 -25 0
65 109 0
-65 -109 0
74 5 0
-74 -5 0
104 129 0
-104 -129 0
114 36 0
-114 -36 0
127 52 0
-127 -52 0
27 112 0
-27 -112 0
84 85 0
-84 -85 0
85 137 0
-85 -137 0
85 135 0
-85 -135 0
42 1 0
-42 -1 0
40 3 0
-40 -3 0
26 105 0
-26 -105 0
63 70 0
-63 -70 0
111 78 0
-111 -78 0
87 30 0
-87 -30 0
106 63 0
-106 -63 0
93 36 0
-93 -36 0
133 13 0
-133 -13 0
4 61 0
-4 -61 0
139 19 0
-139 -19 0
78 51 0
-78 -51 0
129 47 0
-129 -47 0
106 126 0
-106 -126 0
136 5 0
-136 -5 0
41 26 0
-41 -26 0
10 72 0
-10 -72 0
123 113 0
-123 -113 0
56 99 0
-56 -99 0
9 68 0
-9 -68 0
131 137 0
-131 -137 0
27 95 0
-27 -95 0
92 37 0
-92 -37 0
22 97 0
-22 -97 0
48 53 0
-48 -53 0
124 108 0
-124 -108 0
92 125 0
-92 -125 0
77 120 0
-77 -120 0
81 22 0
-81 -22 0
67 60 0
-67 -60 0
92 69 0
-92 -69 0
128 35 0
-128 -35 0
91 61 0
-91 -61 0
72 108 0
-72 -108 0
92 9 0
-92 -9 0
80 39 0
-80 -39 0
112 123 0
-112 -123 0
122 47 0
-122 -47 0
22 86 0
-22 -86 0
54 62 0
-54 -62 0
130 42 0
-130 -42 0
76 107 0
-76 -107 0
99 90 0
-99 -90 0
96 91 0
-96 -91 0
100 134 0
-100 -134 0
112 31 0
-112 -31 0
72 7 0
-72 -7 0
23 60 0
-23 -60 0
120 131 0
-120 -131 0
42 19 0
-42 -19 0
26 86 0
-26 -86 0
95 62 0
-95 -62 0
118 26 0
-118 -26 0
23 37 0
-23 -37 0
115 99 0
-115 -99 0
52 69 0
-52 -69 0
107 61 0
-107 -61 0
114 17 0
-114 -17 0
117 2 0
-117 -2 0
20 15 0
-20 -15 0
139 30 0
-139 -30 0
39 30 0
-39 -30 0
135 34 0
-135 -34 0
70 36 0
-70 -36 0
60 68 0
-60 -68 0
111 25 0
-111 -25 0
136 79 0
-136 -79 0
118 86 0
-118 -86 0
65 8 0
-65 -8 0
45 95 0
-45 -95 0
74 15 0
-74 -15 0
129 39 0
-129 -39 0
113 5 0
-113 -5 0
122 26 0
-122 -26 0
64 11 0
-64 -11 0
122 105 0
-122 -105 0
71 51 0
-71 -51 0
41 14 0
-41 -14 0
120 70 0
-120 -70 0
109 134 0
-109 -134 0
24 17 0
-24 -17 0
40 10 0
-40 -10 0
101 132 0
-101 -132 0
59 6 0
-59 -6 0
89 99 0
-89 -99 0
132 2 0
-132 -2 0
87 99 0
-87 -99 0
124 106 0
-124 -106 0
16 108 0
-16 -108 0
50 82 0
-50 -82 0
17 32 0
-17 -32 0
40 33 0
-40 -33 0
107 37 0
-107 -37 0
106 121 0
-106 -121 0
5 134 0
-5 -134 0
50 36 0
-50 -36 0
126 93 0
-126 -93 0
1 14 0
-1 -14 0
14 98 0
-14 -98 0
22 107 0
-22 -107 0
77 76 0
-77 -76 0
41 140 0
-41 -140 0
73 29 0
-73 -29 0
81 55 0
-81 -55 0
83 120 0
-83 -120 0
50 140 0
-50 -140 0
59 130 0
-59 -130 0
87 56 0
-87 -56 0
101 68 0
-101 -68 0
70 5 0
-70 -5 0
27 66 0
-27 -66 0
85 68 0
-85 -68 0
12 134 0
-12 -134 0
48 98 0
-48 -98 0
140 82 0
-140 -82 0
41 83 0
-41 -83 0
77 78 0
-77 -78 0
122 6 0
-122 -6 0
101 105 0
-101 -105 0
114 24 0
-114 -24 0
38 37 0
-38 -37 0
54 90 0
-54 -90 0
62 108 0
-62 -108 0
122 61 0
-122 -61 0
56 2 0
-56 -2 0
23 53 0
-23 -53 0
62 139 0
-62 -139 0
135 48 0
-135 -48 0
121 60 0
-121 -60 0
62 125 0
-62 -125 0
26 37 0
-26 -37 0
6 15 0
-6 -15 0
76 17 0
-76 -17 0
18 3 0
-18 -3 0
87 6 0
-87 -6 0
73 86 0
-73 -86 0
81 90 0
-81 -90 0
127 75 0
-127 -75 0
59 76 0
-59 -76 0
55 54 0
-55 -54 0
23 93 0
-23 -93 0
71 105 0
-71 -105 0
58 97 0
-58 -97 0
46 82 0
-46 -82 0
71 82 0
-71 -82 0
95 129 0
-95 -129 0
77 10 0
-77 -10 0
104 75 0
-104 -75 0
32 69 0
-32 -69 0
100 86 0
-100 -86 0
46 29 0
-46 -29 0
67 5 0
-67 -5 0
79 47 0
-79 -47 0
71 62 0
-71 -62 0
74 107 0
-74 -107 0
112 121 0
-112 -121 0
54 28 0
-54 -28 0
23 138 0
-23 -138 0
24 8 0
-24 -8 0
130 8 0
-130 -8 0
74 93 0
-74 -93 0
67 44 0
-67 -44 0
127 62 0
-127 -62 0
55 87 0
-55 -87 0
107 115 0
-107 -115 0
67 129 0
-67 -129 0
3 103 0
-3 -103 0
117 32 0
-117 -32 0
41 104 0
-41 -104 0
100 75 0
-100 -75 0
99 60 0
-99 -60 0
40 38 0
-40 -38 0
93 56 0
-93 -56 0
35 117 0
-35 -117 0
54 88 0
-54 -88 0
107 98 0
-107 -98 0
62 33 0
-62 -33 0
27 106 0
-27 -106 0
135 30 0
-135 -30 0
126 53 0
-126 -53 0
122 53 0
-122 -53 0
54 1 0
-54 -1 0
64 75 0
-64 -75 0
102 129 0
-102 -129 0
50 126 0
-50 -126 0
20 16 0
-20 -16 0
114 88 0
-114 -88 0
55 136 0
-55 -136 0
58 56 0
-58 -56 0
2 116 0
-2 -116 0
46 88 0
-46 -88 0
24 65 0
-24 -65 0
127 16 0
-127 -16 0
117 129 0
-117 -129 0
4 89 0
-4 -89 0
113 107 0
-113 -107 0
137 108 0
-137 -108 0
50 33 0
-50 -33 0
113 88 0
-113 -88 0
120 116 0
-120 -116 0
113 126 0
-113 -126 0
111 100 0
-111 -100 0
122 138 0
-122 -138 0
111 22 0
-111 -22 0
113 93 0
-113 -93 0
81 111 0
-81 -111 0
102 96 0
-102 -96 0
40 119 0
-40 -119 0
112 94 0
-112 -94 0
64 83 0
-64 -83 0
84 70 0
-84 -70 0
79 115 0
-79 -115 0
87 79 0
-87 -79 0
85 69 0
-85 -69 0
96 28 0
-96 -28 0
120 29 0
-120 -29 0
11 5 0
-11 -5 0
112 51 0
-112 -51 0
111 76 0
-111 -76 0
42 129 0
-42 -129 0
115 2 0
-115 -2 0
104 65 0
-104 -65 0
70 1 0
-70 -1 0
120 124 0
-120 -124 0
37 8 0
-37 -8 0
53 109 0
-53 -109 0
50 76 0
-50 -76 0
65 72 0
-65 -72 0
71 35 0
-71 -35 0
64 32 0
-64 -32 0
44 88 0
-44 -88 0
77 111 0
-77 -111 0
95 70 0
-95 -70 0
77 28 0
-77 -28 0
86 105 0
-86 -105 0
37 91 0
-37 -91 0
84 80 0
-84 -80 0
64 57 0
-64 -57 0
132 103 0
-132 -103 0
111 53 0
-111 -53 0
22 67 0
-22 -67 0
135 56 0
-135 -56 0
40 11 0
-40 -11 0
1 108 0
-1 -108 0
102 39 0
-102 -39 0
85 70 0
-85 -70 0
82 25 0
-82 -25 0
4 48 0
-4 -48 0
23 13 0
-23 -13 0
71 59 0
-71 -59 0
58 22 0
-58 -22 0
66 91 0
-66 -91 0
49 8 0
-49 -8 0
64 66 0
-64 -66 0
3 51 0
-3 -51 0
27 99 0
-27 -99 0
118 29 0
-118 -29 0
136 16 0
-136 -16 0
17 110 0
-17 -110 0
67 69 0
-67 -69 0
42 37 0
-42 -37 0
9 83 0
-9 -83 0
62 7 0
-62 -7 0
58 77 0
-58 -77 0
15 16 0
-15 -16 0
101 38 0
-101 -38 0
40 61 0
-40 -61 0
128 54 0
-128 -54 0
33 57 0
-33 -57 0
2 19 0
-2 -19 0
98 72 0
-98 -72 0
111 96 0
-111 -96 0
95 56 0
-95 -56 0
88 86 0
-88 -86 0
54 38 0
-54 -38 0
65 108 0
-65 -108 0
88 72 0
-88 -72 0
18 103 0
-18 -103 0
65 28 0
-65 -28 0
45 138 0
-45 -138 0
115 29 0
-115 -29 0
20 1 0
-20 -1 0
114 125 0
-114 -125 0
73 68 0
-73 -68 0
70 39 0
-70 -39 0
136 12 0
-136 -12 0
4 19 0
-4 -19 0
43 7 0
-43 -7 0
132 78 0
-132 -78 0
39 5 0
-39 -5 0
40 21 0
-40 -21 0
15 116 0
-15 -116 0
26 10 0
-26 -10 0
73 110 0
-73 -110 0
9 75 0
-9 -75 0
17 99 0
-17 -99 0
80 51 0
-80 -51 0
127 77 0
-127 -77 0
46 52 0
-46 -52 0
78 28 0
-78 -28 0
112 1 0
-112 -1 0
50 44 0
-50 -44 0
121 32 0
-121 -32 0
89 132 0
-89 -132 0
124 56 0
-124 -56 0
81 62 0
-81 -62 0
24 19 0
-24 -19 0
40 51 0
-40 -51 0
9 17 0
-9 -17 0
105 68 0
-105 -68 0
133 78 0
-133 -78 0
137 68 0
-137 -68 0
44 12 0
-44 -12 0
